NAME : ftv55.80.2264.tour
COMMENT : Length = 2264
COMMENT : Found by LKH [Keld Helsgaun] Tue Dec 11 00:01:48 2018
TYPE : TOUR
DIMENSION : 57
TOUR_SECTION
1
34
27
26
19
20
40
10
5
15
25
55
50
45
30
35
57
32
49
4
7
6
48
29
54
44
41
21
43
23
42
22
51
24
28
46
31
47
56
2
3
14
36
8
33
9
37
38
12
39
11
52
13
16
17
18
53
-1
EOF
